&bands
  outdir='./'
  filband='Si-bands.out'
/
