&inputpp
  calculation = "eps"
  prefix = "silicon"
    outdir = "./"
/

&energy_grid
  smeartype = "gauss"
  intersmear = 0.15
  intrasmear = 0.0
  wmin =  0.0
  wmax = 30.0
  nw = 1000
/
